400
750
523
522
522
518
517
517
515
511
509
508
504
503
502
500
499
499
496
492
492
491
490
489
485
484
483
479
475
474
474
473
473
470
469
468
467
467
466
466
465
463
462
461
461
461
460
460
453
452
450
448
446
445
444
442
442
442
440
439
438
437
436
435
433
432
432
432
430
429
428
428
426
426
426
426
423
422
421
419
419
418
415
415
414
411
411
411
410
408
408
408
407
405
403
402
400
397
395
394
394
391
389
388
388
387
387
386
386
385
385
384
383
380
379
379
378
377
377
377
376
376
376
374
374
374
374
372
370
370
369
366
366
365
364
364
363
363
362
361
359
358
358
358
355
354
354
354
354
354
349
349
349
347
347
347
346
343
342
342
340
340
339
339
339
337
336
336
335
335
334
334
333
332
332
330
330
330
329
328
326
325
325
324
324
324
323
320
319
319
317
315
314
311
309
309
309
308
307
307
307
307
306
305
304
299
299
299
295
295
294
292
292
290
289
289
288
286
283
283
282
280
280
280
279
276
275
275
273
272
271
269
268
268
267
267
265
264
263
263
263
262
261
261
259
258
252
250
250
248
248
246
242
241
240
240
239
239
239
239
238
238
235
233
233
230
228
228
228
225
222
222
220
219
215
214
214
214
214
211
209
205
204
203
202
201
198
198
198
192
191
191
190
190
189
188
186
186
186
186
184
182
180
178
177
176
176
175
173
173
172
172
171
170
170
169
167
164
161
161
161
161
160
158
156
155
154
153
152
152
151
150
150
148
148
147
147
146
146
144
144
143
142
142
140
139
139
138
138
138
137
135
132
131
131
130
130
129
123
121
121
117
116
116
114
113
112
112
110
110
109
108
107
106
106
105
105
105
103
102
100
100
98
98
96
95
92
88
86
85
85
84
84
83
81
80
79
79
79
79
78
76
